************************************************************************
file with basedata            : mm58_.bas
initial value random generator: 2048606670
************************************************************************
projects                      :  1
jobs (incl. supersource/sink ):  12
horizon                       :  91
RESOURCES
  - renewable                 :  2   R
  - nonrenewable              :  2   N
  - doubly constrained        :  0   D
************************************************************************
PROJECT INFORMATION:
pronr.  #jobs rel.date duedate tardcost  MPM-Time
    1     10      0       13        9       13
************************************************************************
PRECEDENCE RELATIONS:
jobnr.    #modes  #successors   successors
   0        1          3           1   2   3
   1        3          2           6   7
   2        3          3           5   6   7
   3        3          3           4   6   9
   4        3          1          10
   5        3          1           9
   6        3          1           8
   7        3          1          10
   8        3          1          11
   9        3          1          11
  10        3          1          11
  11        1          0        
************************************************************************
REQUESTS/DURATIONS:
jobnr. mode duration  R 1  R 2  R 3  R 4  E(W 1)  E(W 2)
------------------------------------------------------------------------
  0      1     0       0    0    0    0     0       0
  1      1     1       8    6    8    0    14       8
  2      1     3       8    4    0    7    36      21
  3      1     2       2   10    0    3    24       6
  4      1     4       8    8    8    0    64      32
  5      1     2       6    6    0    9    24      18
  6      1     2       2    8    0    7    20      14
  7      1     4       7    2    8    0    36      32
  8      1     8       2    6    0    7    64      56
  9      1     7       7    6    0    8    91      56
 10      1     5       3   10    6    0    65      30
 11      1     0       0    0    0    0     0       0
************************************************************************
RESOURCEAVAILABILITIES:
  R 1  R 2
   48   59
************************************************************************
RESOURCE LIMITS:
jobnr.  l(R 1)  u(R 1)  l(R 2)  u(R 2)
------------------------------------------------------------------------
  0        0       0       0       0
  1        7      14       4       8
  2        6      12       4       7
  3        6      12       2       3
  4        8      16       4       8
  5        6      12       5       9
  6        5      10       4       7
  7        5       9       4       8
  8        4       8       4       7
  9        7      13       4       8
 10        7      13       3       6
 11        0       0       0       0
************************************************************************
SCENARIOS:
------------------------------------------------------------------------
RESOURCE k = 1
s = 1: (0, 16, 42, 16, 52, 33, 12, 35, 49, 65, 48, 0)
s = 2: (0, 17, 22, 35, 84, 17, 26, 43, 40, 53, 74, 0)
s = 3: (0, 11, 47, 23, 92, 21, 13, 32, 79, 73, 69, 0)
s = 4: (0, 15, 39, 16, 92, 14, 20, 22, 34, 94, 47, 0)
s = 5: (0, 16, 40, 15, 58, 20, 13, 30, 92, 54, 79, 0)
s = 6: (0, 18, 33, 16, 75, 17, 16, 37, 53, 102, 43, 0)
s = 7: (0, 13, 25, 27, 51, 21, 13, 23, 54, 108, 62, 0)
s = 8: (0, 10, 60, 17, 84, 25, 21, 19, 94, 137, 80, 0)
s = 9: (0, 24, 46, 19, 60, 37, 28, 40, 80, 75, 81, 0)
s = 10: (0, 8, 21, 23, 59, 19, 34, 25, 69, 73, 87, 0)
s = 11: (0, 17, 41, 23, 83, 23, 14, 37, 106, 59, 47, 0)
s = 12: (0, 11, 56, 21, 60, 18, 20, 37, 91, 100, 67, 0)
s = 13: (0, 15, 44, 18, 58, 20, 14, 31, 42, 53, 52, 0)
s = 14: (0, 15, 35, 24, 58, 34, 23, 27, 70, 101, 62, 0)
s = 15: (0, 17, 45, 25, 60, 25, 19, 27, 115, 109, 69, 0)
s = 16: (0, 12, 44, 26, 111, 19, 22, 48, 45, 150, 54, 0)
s = 17: (0, 19, 23, 26, 70, 26, 30, 29, 78, 58, 59, 0)
s = 18: (0, 10, 37, 18, 76, 22, 18, 34, 85, 100, 46, 0)
s = 19: (0, 9, 53, 19, 52, 25, 18, 29, 48, 66, 49, 0)
s = 20: (0, 17, 22, 34, 34, 26, 17, 46, 61, 108, 41, 0)
s = 21: (0, 9, 36, 27, 41, 20, 19, 27, 75, 101, 75, 0)
s = 22: (0, 15, 45, 25, 91, 28, 22, 45, 50, 88, 46, 0)
s = 23: (0, 13, 29, 30, 68, 33, 22, 36, 53, 97, 57, 0)
s = 24: (0, 19, 28, 27, 77, 18, 22, 21, 37, 110, 63, 0)
s = 25: (0, 12, 42, 27, 59, 25, 15, 29, 66, 106, 69, 0)
s = 26: (0, 16, 52, 22, 88, 21, 18, 33, 40, 72, 98, 0)
s = 27: (0, 15, 37, 22, 70, 18, 15, 29, 68, 108, 41, 0)
s = 28: (0, 15, 34, 25, 75, 21, 25, 27, 57, 97, 59, 0)
s = 29: (0, 15, 49, 22, 49, 27, 22, 45, 43, 108, 65, 0)
s = 30: (0, 17, 50, 21, 63, 17, 15, 37, 36, 77, 67, 0)
s = 31: (0, 17, 24, 23, 89, 22, 18, 34, 49, 99, 103, 0)
s = 32: (0, 13, 24, 43, 50, 25, 17, 44, 73, 110, 48, 0)
s = 33: (0, 13, 37, 25, 54, 17, 12, 47, 45, 64, 70, 0)
s = 34: (0, 24, 27, 24, 42, 20, 21, 40, 65, 76, 59, 0)
s = 35: (0, 14, 30, 36, 71, 33, 28, 27, 40, 78, 53, 0)
s = 36: (0, 21, 47, 29, 49, 28, 12, 33, 77, 85, 50, 0)
s = 37: (0, 13, 29, 21, 91, 17, 23, 38, 64, 114, 57, 0)
s = 38: (0, 11, 23, 27, 68, 23, 19, 50, 64, 89, 54, 0)
s = 39: (0, 18, 42, 41, 54, 24, 21, 25, 58, 77, 88, 0)
s = 40: (0, 15, 29, 22, 50, 21, 23, 44, 55, 81, 36, 0)
s = 41: (0, 11, 65, 23, 46, 23, 19, 29, 78, 99, 53, 0)
s = 42: (0, 15, 22, 13, 78, 28, 33, 27, 84, 75, 58, 0)
s = 43: (0, 11, 26, 19, 72, 24, 12, 25, 43, 92, 76, 0)
s = 44: (0, 11, 46, 25, 58, 22, 16, 46, 74, 67, 54, 0)
s = 45: (0, 12, 53, 28, 72, 38, 18, 47, 42, 115, 65, 0)
s = 46: (0, 11, 32, 23, 62, 20, 20, 27, 52, 135, 41, 0)
s = 47: (0, 15, 46, 19, 34, 25, 14, 27, 69, 69, 64, 0)
s = 48: (0, 16, 39, 20, 48, 19, 16, 48, 43, 92, 88, 0)
s = 49: (0, 14, 41, 25, 67, 17, 20, 54, 52, 115, 76, 0)
s = 50: (0, 12, 51, 18, 39, 18, 14, 37, 62, 77, 65, 0)
s = 51: (0, 10, 33, 36, 66, 30, 18, 42, 73, 49, 56, 0)
s = 52: (0, 11, 40, 35, 77, 27, 17, 48, 76, 141, 81, 0)
s = 53: (0, 17, 23, 45, 89, 21, 20, 31, 84, 126, 69, 0)
s = 54: (0, 12, 48, 34, 72, 32, 14, 41, 47, 109, 60, 0)
s = 55: (0, 16, 37, 21, 36, 22, 35, 45, 44, 105, 58, 0)
s = 56: (0, 17, 52, 21, 71, 37, 15, 31, 45, 123, 73, 0)
s = 57: (0, 11, 46, 43, 40, 25, 20, 52, 59, 123, 61, 0)
s = 58: (0, 25, 32, 27, 104, 27, 16, 27, 65, 104, 48, 0)
s = 59: (0, 14, 20, 35, 45, 29, 17, 34, 49, 131, 86, 0)
s = 60: (0, 19, 28, 28, 53, 20, 26, 24, 63, 62, 96, 0)
s = 61: (0, 16, 35, 19, 75, 36, 23, 51, 52, 112, 79, 0)
s = 62: (0, 13, 46, 28, 45, 20, 20, 47, 41, 115, 74, 0)
s = 63: (0, 13, 38, 35, 85, 17, 22, 44, 49, 72, 69, 0)
s = 64: (0, 15, 35, 26, 75, 38, 19, 33, 66, 79, 88, 0)
s = 65: (0, 16, 33, 30, 35, 20, 21, 30, 67, 57, 97, 0)
s = 66: (0, 11, 53, 35, 50, 32, 14, 45, 76, 108, 71, 0)
s = 67: (0, 8, 25, 13, 64, 24, 13, 41, 86, 99, 48, 0)
s = 68: (0, 13, 40, 14, 38, 18, 16, 52, 52, 84, 44, 0)
s = 69: (0, 19, 34, 32, 58, 37, 18, 37, 62, 97, 40, 0)
s = 70: (0, 20, 55, 29, 43, 13, 21, 19, 63, 66, 101, 0)
s = 71: (0, 16, 37, 35, 68, 20, 31, 23, 95, 102, 51, 0)
s = 72: (0, 15, 22, 16, 65, 23, 25, 29, 84, 56, 47, 0)
s = 73: (0, 18, 20, 17, 55, 18, 11, 22, 93, 138, 62, 0)
s = 74: (0, 22, 42, 30, 57, 33, 17, 51, 60, 74, 50, 0)
s = 75: (0, 13, 20, 15, 107, 33, 15, 43, 86, 95, 65, 0)
s = 76: (0, 19, 25, 23, 75, 22, 29, 50, 78, 57, 61, 0)
s = 77: (0, 15, 29, 20, 41, 18, 24, 45, 78, 65, 54, 0)
s = 78: (0, 28, 28, 30, 59, 22, 13, 25, 59, 99, 44, 0)
s = 79: (0, 13, 40, 29, 52, 29, 12, 38, 78, 61, 71, 0)
s = 80: (0, 17, 53, 27, 53, 23, 23, 44, 47, 104, 38, 0)
s = 81: (0, 13, 21, 26, 61, 17, 32, 24, 52, 111, 51, 0)
s = 82: (0, 19, 53, 23, 53, 38, 12, 31, 59, 71, 68, 0)
s = 83: (0, 18, 23, 26, 103, 20, 23, 43, 44, 57, 71, 0)
s = 84: (0, 15, 24, 20, 44, 21, 25, 32, 47, 88, 40, 0)
s = 85: (0, 23, 43, 23, 61, 35, 26, 45, 114, 56, 72, 0)
s = 86: (0, 10, 44, 16, 36, 23, 33, 42, 46, 123, 53, 0)
s = 87: (0, 16, 45, 18, 86, 15, 13, 23, 87, 119, 49, 0)
s = 88: (0, 11, 30, 27, 76, 17, 17, 22, 60, 120, 61, 0)
s = 89: (0, 19, 58, 35, 61, 19, 31, 33, 87, 91, 103, 0)
s = 90: (0, 17, 65, 22, 57, 30, 20, 33, 54, 88, 47, 0)
s = 91: (0, 13, 24, 28, 44, 23, 19, 33, 53, 95, 99, 0)
s = 92: (0, 17, 39, 27, 55, 27, 19, 31, 59, 106, 49, 0)
s = 93: (0, 14, 57, 20, 60, 29, 15, 51, 71, 65, 60, 0)
s = 94: (0, 10, 39, 13, 47, 15, 18, 48, 86, 69, 53, 0)
s = 95: (0, 9, 31, 15, 80, 25, 29, 33, 34, 87, 58, 0)
s = 96: (0, 12, 24, 18, 51, 23, 36, 36, 36, 101, 45, 0)
s = 97: (0, 15, 43, 21, 60, 18, 15, 38, 79, 85, 46, 0)
s = 98: (0, 13, 42, 26, 65, 27, 14, 31, 86, 129, 73, 0)
s = 99: (0, 17, 36, 20, 61, 13, 18, 37, 72, 93, 47, 0)
s = 100: (0, 20, 30, 33, 55, 17, 23, 36, 79, 98, 65, 0)
s = 101: (0, 22, 22, 30, 48, 27, 16, 25, 57, 60, 93, 0)
s = 102: (0, 22, 41, 24, 66, 15, 15, 30, 52, 60, 72, 0)
s = 103: (0, 15, 43, 19, 53, 22, 21, 37, 70, 106, 69, 0)
s = 104: (0, 16, 53, 22, 101, 15, 14, 44, 99, 67, 52, 0)
s = 105: (0, 13, 39, 13, 97, 19, 18, 43, 44, 108, 56, 0)
s = 106: (0, 10, 30, 37, 79, 23, 32, 34, 63, 78, 60, 0)
s = 107: (0, 18, 44, 15, 75, 22, 16, 28, 48, 111, 51, 0)
s = 108: (0, 17, 32, 34, 48, 24, 15, 23, 105, 87, 57, 0)
s = 109: (0, 11, 28, 15, 58, 14, 18, 26, 47, 97, 42, 0)
s = 110: (0, 20, 35, 29, 72, 16, 16, 26, 37, 71, 85, 0)
s = 111: (0, 14, 41, 15, 61, 38, 27, 31, 52, 84, 100, 0)
s = 112: (0, 11, 49, 37, 49, 25, 15, 57, 83, 59, 73, 0)
s = 113: (0, 21, 39, 24, 82, 17, 15, 38, 73, 79, 50, 0)
s = 114: (0, 15, 60, 18, 120, 14, 19, 28, 69, 95, 53, 0)
s = 115: (0, 10, 39, 23, 43, 18, 23, 32, 55, 72, 45, 0)
s = 116: (0, 13, 41, 17, 65, 27, 15, 57, 59, 80, 86, 0)
s = 117: (0, 18, 27, 20, 71, 26, 32, 27, 36, 60, 70, 0)
s = 118: (0, 12, 33, 33, 66, 22, 14, 19, 83, 119, 98, 0)
s = 119: (0, 10, 23, 22, 98, 21, 18, 29, 52, 54, 86, 0)
s = 120: (0, 14, 27, 21, 87, 21, 15, 30, 52, 87, 89, 0)
s = 121: (0, 18, 44, 23, 48, 17, 20, 42, 40, 107, 67, 0)
s = 122: (0, 14, 46, 21, 86, 21, 14, 49, 49, 71, 108, 0)
s = 123: (0, 12, 25, 20, 66, 22, 18, 38, 70, 48, 48, 0)
s = 124: (0, 9, 22, 17, 63, 15, 14, 22, 57, 95, 81, 0)
s = 125: (0, 10, 22, 23, 74, 20, 11, 58, 49, 80, 75, 0)
s = 126: (0, 23, 31, 20, 74, 16, 13, 33, 83, 83, 42, 0)
s = 127: (0, 11, 37, 15, 88, 22, 19, 30, 55, 127, 70, 0)
s = 128: (0, 12, 40, 13, 72, 26, 16, 26, 50, 83, 44, 0)
s = 129: (0, 17, 35, 20, 37, 32, 19, 40, 64, 79, 64, 0)
s = 130: (0, 13, 42, 17, 53, 23, 22, 29, 58, 113, 63, 0)
s = 131: (0, 18, 22, 20, 34, 26, 20, 36, 46, 66, 46, 0)
s = 132: (0, 16, 24, 27, 79, 15, 16, 27, 58, 64, 61, 0)
s = 133: (0, 19, 44, 21, 40, 22, 25, 21, 62, 120, 62, 0)
s = 134: (0, 20, 42, 38, 67, 30, 16, 38, 66, 94, 37, 0)
s = 135: (0, 17, 26, 29, 45, 21, 15, 55, 46, 122, 56, 0)
s = 136: (0, 9, 28, 22, 45, 24, 15, 39, 92, 95, 91, 0)
s = 137: (0, 18, 38, 25, 42, 13, 26, 28, 51, 96, 94, 0)
s = 138: (0, 9, 32, 28, 48, 32, 16, 32, 70, 87, 73, 0)
s = 139: (0, 9, 38, 32, 90, 37, 14, 41, 100, 74, 44, 0)
s = 140: (0, 13, 54, 29, 61, 35, 14, 43, 87, 141, 97, 0)
s = 141: (0, 23, 38, 20, 57, 18, 33, 23, 59, 80, 42, 0)
s = 142: (0, 15, 37, 32, 53, 29, 20, 33, 50, 107, 59, 0)
s = 143: (0, 17, 45, 33, 77, 27, 19, 35, 102, 51, 61, 0)
s = 144: (0, 11, 46, 18, 90, 36, 17, 62, 88, 128, 56, 0)
s = 145: (0, 16, 44, 40, 82, 23, 19, 24, 91, 78, 72, 0)
s = 146: (0, 16, 32, 22, 105, 24, 17, 42, 80, 154, 102, 0)
s = 147: (0, 10, 38, 27, 59, 29, 30, 38, 56, 88, 37, 0)
s = 148: (0, 11, 42, 24, 44, 17, 14, 20, 46, 64, 61, 0)
s = 149: (0, 20, 32, 21, 93, 21, 26, 38, 67, 76, 51, 0)
s = 150: (0, 15, 31, 29, 86, 16, 31, 28, 48, 121, 71, 0)
s = 151: (0, 21, 42, 36, 64, 16, 26, 26, 87, 118, 66, 0)
s = 152: (0, 16, 26, 40, 60, 37, 28, 35, 59, 96, 65, 0)
s = 153: (0, 9, 60, 19, 57, 40, 11, 33, 43, 102, 83, 0)
s = 154: (0, 13, 45, 33, 88, 20, 21, 27, 68, 83, 68, 0)
s = 155: (0, 16, 24, 29, 82, 20, 17, 65, 64, 107, 56, 0)
s = 156: (0, 11, 38, 29, 67, 33, 24, 29, 69, 65, 76, 0)
s = 157: (0, 17, 29, 21, 82, 22, 21, 35, 39, 129, 65, 0)
s = 158: (0, 17, 32, 37, 101, 23, 21, 39, 54, 109, 48, 0)
s = 159: (0, 12, 36, 34, 61, 24, 22, 32, 86, 98, 38, 0)
s = 160: (0, 15, 28, 37, 75, 30, 15, 36, 43, 78, 81, 0)
s = 161: (0, 16, 43, 27, 53, 34, 12, 36, 90, 63, 66, 0)
s = 162: (0, 14, 24, 20, 49, 35, 22, 24, 42, 79, 99, 0)
s = 163: (0, 12, 44, 18, 68, 20, 18, 37, 101, 94, 43, 0)
s = 164: (0, 20, 35, 16, 45, 17, 36, 38, 57, 102, 109, 0)
s = 165: (0, 22, 28, 18, 62, 25, 12, 28, 50, 96, 58, 0)
s = 166: (0, 11, 30, 39, 90, 28, 29, 40, 37, 135, 66, 0)
s = 167: (0, 14, 35, 21, 49, 15, 19, 36, 71, 82, 85, 0)
s = 168: (0, 13, 44, 22, 83, 27, 26, 43, 96, 74, 55, 0)
s = 169: (0, 9, 35, 36, 45, 26, 17, 50, 40, 96, 62, 0)
s = 170: (0, 15, 21, 35, 75, 19, 22, 33, 92, 117, 78, 0)
s = 171: (0, 11, 38, 19, 87, 16, 12, 38, 63, 91, 88, 0)
s = 172: (0, 13, 40, 16, 40, 29, 19, 32, 64, 98, 45, 0)
s = 173: (0, 13, 38, 13, 77, 21, 34, 28, 126, 146, 87, 0)
s = 174: (0, 18, 34, 23, 100, 26, 27, 49, 70, 92, 106, 0)
s = 175: (0, 16, 34, 31, 52, 18, 26, 34, 65, 73, 50, 0)
s = 176: (0, 13, 32, 23, 64, 34, 25, 36, 75, 151, 39, 0)
s = 177: (0, 12, 40, 37, 59, 17, 24, 24, 49, 93, 36, 0)
s = 178: (0, 22, 37, 32, 55, 15, 18, 48, 48, 73, 88, 0)
s = 179: (0, 11, 37, 18, 65, 22, 29, 34, 89, 68, 73, 0)
s = 180: (0, 18, 34, 23, 46, 26, 25, 24, 57, 88, 41, 0)
s = 181: (0, 21, 44, 15, 37, 25, 15, 53, 57, 99, 73, 0)
s = 182: (0, 14, 31, 15, 35, 13, 16, 48, 64, 82, 92, 0)
s = 183: (0, 18, 57, 22, 79, 33, 16, 32, 42, 67, 38, 0)
s = 184: (0, 13, 40, 19, 36, 19, 12, 35, 66, 134, 72, 0)
s = 185: (0, 10, 55, 22, 65, 40, 19, 28, 42, 80, 78, 0)
s = 186: (0, 14, 33, 25, 91, 17, 27, 26, 116, 48, 73, 0)
s = 187: (0, 23, 39, 27, 93, 20, 21, 33, 76, 86, 84, 0)
s = 188: (0, 13, 46, 31, 51, 21, 29, 46, 60, 102, 53, 0)
s = 189: (0, 10, 25, 17, 96, 14, 24, 32, 38, 76, 77, 0)
s = 190: (0, 11, 39, 24, 63, 28, 32, 38, 59, 73, 89, 0)
s = 191: (0, 14, 20, 30, 42, 15, 20, 28, 54, 83, 45, 0)
s = 192: (0, 14, 31, 14, 61, 24, 18, 50, 46, 69, 48, 0)
s = 193: (0, 20, 31, 30, 55, 22, 22, 35, 85, 59, 40, 0)
s = 194: (0, 9, 41, 19, 65, 24, 17, 27, 94, 111, 59, 0)
s = 195: (0, 9, 59, 38, 72, 19, 16, 42, 42, 104, 43, 0)
s = 196: (0, 14, 39, 20, 86, 21, 25, 56, 84, 104, 56, 0)
s = 197: (0, 17, 44, 27, 60, 30, 13, 42, 46, 65, 77, 0)
s = 198: (0, 19, 31, 18, 54, 19, 14, 35, 73, 73, 62, 0)
s = 199: (0, 16, 37, 24, 65, 32, 18, 25, 56, 113, 98, 0)
s = 200: (0, 11, 21, 21, 84, 22, 18, 28, 80, 76, 37, 0)
------------------------------------------------------------------------
RESOURCE k = 2
s = 1: (0, 9, 25, 4, 26, 25, 9, 31, 43, 40, 23, 0)
s = 2: (0, 10, 13, 9, 42, 13, 18, 38, 35, 33, 34, 0)
s = 3: (0, 6, 28, 6, 46, 16, 9, 29, 69, 45, 32, 0)
s = 4: (0, 9, 23, 4, 46, 10, 14, 20, 30, 58, 22, 0)
s = 5: (0, 10, 23, 4, 29, 15, 10, 27, 81, 34, 37, 0)
s = 6: (0, 11, 19, 4, 38, 13, 11, 33, 47, 63, 20, 0)
s = 7: (0, 8, 15, 7, 26, 16, 9, 21, 47, 67, 29, 0)
s = 8: (0, 6, 35, 5, 42, 19, 15, 17, 82, 85, 37, 0)
s = 9: (0, 14, 27, 5, 30, 28, 19, 36, 70, 46, 38, 0)
s = 10: (0, 5, 12, 6, 30, 15, 24, 22, 60, 45, 40, 0)
s = 11: (0, 10, 24, 6, 42, 18, 10, 33, 93, 37, 22, 0)
s = 12: (0, 7, 33, 6, 30, 13, 14, 33, 80, 62, 31, 0)
s = 13: (0, 9, 26, 5, 29, 15, 10, 28, 37, 33, 24, 0)
s = 14: (0, 9, 21, 6, 29, 26, 16, 24, 61, 62, 29, 0)
s = 15: (0, 10, 27, 7, 30, 19, 13, 24, 101, 67, 32, 0)
s = 16: (0, 7, 26, 7, 56, 14, 16, 43, 40, 93, 25, 0)
s = 17: (0, 11, 14, 7, 35, 19, 21, 26, 68, 36, 28, 0)
s = 18: (0, 6, 22, 5, 38, 16, 13, 31, 74, 62, 22, 0)
s = 19: (0, 5, 31, 5, 26, 19, 13, 26, 42, 41, 23, 0)
s = 20: (0, 10, 13, 9, 17, 20, 12, 41, 53, 67, 19, 0)
s = 21: (0, 6, 21, 7, 21, 15, 14, 24, 66, 62, 35, 0)
s = 22: (0, 9, 27, 7, 46, 21, 15, 40, 44, 54, 21, 0)
s = 23: (0, 8, 17, 8, 34, 25, 16, 32, 46, 60, 27, 0)
s = 24: (0, 11, 17, 7, 39, 13, 16, 19, 33, 68, 29, 0)
s = 25: (0, 7, 25, 7, 30, 19, 10, 26, 58, 65, 32, 0)
s = 26: (0, 9, 30, 6, 44, 16, 13, 30, 35, 45, 46, 0)
s = 27: (0, 9, 22, 6, 35, 13, 10, 26, 60, 66, 19, 0)
s = 28: (0, 9, 20, 7, 38, 16, 17, 24, 50, 60, 27, 0)
s = 29: (0, 9, 29, 6, 25, 20, 16, 40, 38, 67, 30, 0)
s = 30: (0, 10, 29, 6, 32, 13, 11, 33, 32, 48, 31, 0)
s = 31: (0, 10, 14, 6, 45, 16, 12, 30, 43, 61, 48, 0)
s = 32: (0, 8, 14, 11, 25, 19, 12, 39, 64, 68, 22, 0)
s = 33: (0, 8, 22, 7, 27, 13, 9, 41, 40, 39, 33, 0)
s = 34: (0, 14, 16, 6, 21, 15, 15, 35, 57, 47, 28, 0)
s = 35: (0, 8, 18, 9, 36, 25, 20, 24, 35, 48, 25, 0)
s = 36: (0, 12, 28, 8, 25, 21, 9, 29, 68, 53, 23, 0)
s = 37: (0, 8, 17, 6, 46, 13, 16, 34, 56, 70, 27, 0)
s = 38: (0, 6, 13, 7, 34, 18, 13, 44, 56, 55, 25, 0)
s = 39: (0, 11, 25, 11, 27, 18, 15, 22, 51, 48, 41, 0)
s = 40: (0, 9, 17, 6, 25, 16, 16, 39, 48, 50, 17, 0)
s = 41: (0, 6, 38, 6, 23, 17, 13, 26, 69, 61, 25, 0)
s = 42: (0, 9, 13, 4, 39, 21, 23, 24, 74, 46, 27, 0)
s = 43: (0, 6, 15, 5, 36, 18, 8, 22, 38, 57, 36, 0)
s = 44: (0, 7, 27, 7, 29, 17, 11, 41, 65, 42, 25, 0)
s = 45: (0, 7, 31, 7, 36, 28, 12, 42, 37, 71, 30, 0)
s = 46: (0, 7, 19, 6, 31, 15, 14, 24, 46, 83, 19, 0)
s = 47: (0, 9, 27, 5, 17, 19, 10, 24, 60, 42, 30, 0)
s = 48: (0, 10, 23, 5, 24, 15, 11, 42, 38, 57, 41, 0)
s = 49: (0, 8, 24, 7, 34, 13, 14, 48, 46, 71, 35, 0)
s = 50: (0, 7, 30, 5, 20, 13, 10, 33, 54, 48, 30, 0)
s = 51: (0, 6, 20, 9, 33, 22, 12, 37, 64, 30, 26, 0)
s = 52: (0, 7, 23, 9, 39, 20, 12, 43, 66, 87, 38, 0)
s = 53: (0, 10, 14, 12, 45, 16, 14, 28, 74, 78, 32, 0)
s = 54: (0, 7, 28, 9, 36, 24, 10, 36, 41, 67, 28, 0)
s = 55: (0, 9, 22, 6, 18, 17, 25, 40, 39, 65, 27, 0)
s = 56: (0, 10, 31, 6, 36, 28, 11, 27, 39, 76, 34, 0)
s = 57: (0, 7, 27, 11, 20, 19, 14, 46, 52, 76, 29, 0)
s = 58: (0, 14, 19, 7, 52, 21, 12, 24, 57, 64, 23, 0)
s = 59: (0, 8, 12, 9, 23, 22, 12, 31, 43, 81, 40, 0)
s = 60: (0, 11, 16, 7, 27, 15, 19, 22, 55, 38, 45, 0)
s = 61: (0, 10, 20, 5, 38, 27, 16, 45, 45, 69, 37, 0)
s = 62: (0, 7, 27, 7, 23, 15, 14, 42, 36, 71, 34, 0)
s = 63: (0, 8, 23, 9, 43, 13, 16, 39, 43, 45, 32, 0)
s = 64: (0, 9, 20, 7, 38, 29, 13, 30, 58, 49, 41, 0)
s = 65: (0, 9, 19, 8, 18, 15, 15, 27, 59, 35, 45, 0)
s = 66: (0, 6, 31, 9, 25, 24, 10, 40, 66, 67, 33, 0)
s = 67: (0, 5, 15, 4, 32, 18, 9, 37, 75, 61, 23, 0)
s = 68: (0, 8, 24, 4, 19, 13, 11, 46, 45, 52, 20, 0)
s = 69: (0, 11, 20, 8, 29, 28, 13, 33, 54, 60, 19, 0)
s = 70: (0, 11, 32, 8, 22, 10, 15, 17, 56, 41, 47, 0)
s = 71: (0, 9, 22, 9, 34, 15, 22, 21, 83, 63, 24, 0)
s = 72: (0, 9, 13, 4, 33, 17, 18, 26, 73, 35, 22, 0)
s = 73: (0, 11, 12, 5, 28, 13, 8, 19, 81, 85, 29, 0)
s = 74: (0, 13, 25, 8, 29, 25, 12, 45, 53, 46, 23, 0)
s = 75: (0, 8, 12, 4, 54, 25, 11, 38, 75, 59, 30, 0)
s = 76: (0, 11, 15, 6, 38, 17, 21, 45, 68, 35, 28, 0)
s = 77: (0, 9, 17, 5, 21, 14, 17, 40, 68, 40, 25, 0)
s = 78: (0, 16, 17, 8, 30, 17, 9, 22, 52, 61, 21, 0)
s = 79: (0, 8, 24, 8, 26, 22, 8, 34, 69, 38, 33, 0)
s = 80: (0, 10, 31, 7, 27, 17, 17, 39, 41, 64, 18, 0)
s = 81: (0, 8, 13, 7, 31, 13, 22, 21, 46, 68, 24, 0)
s = 82: (0, 11, 31, 6, 27, 29, 9, 27, 51, 44, 32, 0)
s = 83: (0, 11, 13, 7, 52, 15, 16, 38, 39, 35, 33, 0)
s = 84: (0, 9, 14, 5, 22, 16, 18, 28, 41, 54, 19, 0)
s = 85: (0, 13, 26, 6, 31, 26, 18, 40, 100, 34, 34, 0)
s = 86: (0, 6, 26, 4, 18, 17, 23, 38, 40, 76, 25, 0)
s = 87: (0, 9, 26, 5, 43, 12, 9, 21, 76, 73, 23, 0)
s = 88: (0, 7, 18, 7, 38, 13, 12, 20, 53, 74, 29, 0)
s = 89: (0, 11, 34, 9, 31, 14, 22, 29, 76, 56, 48, 0)
s = 90: (0, 10, 38, 6, 29, 22, 14, 30, 47, 54, 22, 0)
s = 91: (0, 8, 14, 7, 22, 18, 13, 29, 47, 58, 46, 0)
s = 92: (0, 10, 23, 7, 28, 21, 13, 28, 52, 65, 23, 0)
s = 93: (0, 8, 33, 5, 30, 22, 10, 46, 62, 40, 28, 0)
s = 94: (0, 6, 23, 4, 24, 11, 13, 43, 75, 43, 25, 0)
s = 95: (0, 5, 18, 4, 40, 19, 20, 30, 29, 54, 27, 0)
s = 96: (0, 7, 14, 5, 26, 18, 25, 32, 31, 62, 21, 0)
s = 97: (0, 9, 25, 6, 30, 14, 10, 34, 69, 53, 22, 0)
s = 98: (0, 7, 25, 7, 33, 20, 10, 28, 76, 80, 34, 0)
s = 99: (0, 10, 21, 5, 31, 10, 13, 33, 63, 57, 22, 0)
s = 100: (0, 11, 18, 9, 28, 13, 16, 32, 70, 61, 30, 0)
s = 101: (0, 13, 13, 8, 24, 20, 11, 22, 50, 37, 43, 0)
s = 102: (0, 13, 24, 6, 33, 12, 10, 27, 45, 37, 34, 0)
s = 103: (0, 9, 25, 5, 27, 17, 15, 33, 62, 65, 32, 0)
s = 104: (0, 10, 31, 6, 51, 12, 10, 39, 86, 41, 24, 0)
s = 105: (0, 8, 23, 4, 49, 14, 13, 38, 39, 67, 26, 0)
s = 106: (0, 6, 17, 10, 40, 18, 22, 30, 55, 48, 28, 0)
s = 107: (0, 10, 26, 4, 38, 17, 11, 25, 42, 68, 24, 0)
s = 108: (0, 10, 19, 9, 24, 18, 11, 20, 92, 54, 27, 0)
s = 109: (0, 7, 16, 4, 29, 11, 13, 23, 41, 60, 19, 0)
s = 110: (0, 11, 21, 8, 36, 12, 11, 23, 33, 44, 39, 0)
s = 111: (0, 8, 24, 4, 31, 29, 19, 28, 46, 52, 46, 0)
s = 112: (0, 7, 29, 10, 25, 19, 11, 51, 73, 36, 34, 0)
s = 113: (0, 12, 23, 6, 41, 13, 11, 33, 64, 49, 23, 0)
s = 114: (0, 9, 35, 5, 60, 10, 13, 25, 61, 59, 25, 0)
s = 115: (0, 6, 23, 6, 22, 13, 16, 28, 48, 44, 21, 0)
s = 116: (0, 8, 24, 5, 33, 20, 11, 51, 51, 50, 40, 0)
s = 117: (0, 10, 16, 5, 36, 20, 22, 24, 32, 37, 33, 0)
s = 118: (0, 7, 20, 9, 33, 16, 10, 17, 73, 74, 45, 0)
s = 119: (0, 6, 13, 6, 49, 16, 13, 26, 46, 33, 40, 0)
s = 120: (0, 8, 16, 6, 44, 16, 11, 27, 45, 54, 41, 0)
s = 121: (0, 10, 26, 6, 24, 13, 14, 37, 35, 66, 31, 0)
s = 122: (0, 8, 27, 6, 43, 16, 10, 44, 43, 44, 50, 0)
s = 123: (0, 7, 15, 5, 33, 16, 13, 34, 62, 30, 22, 0)
s = 124: (0, 5, 13, 5, 32, 12, 10, 20, 50, 59, 38, 0)
s = 125: (0, 6, 13, 6, 37, 15, 8, 51, 43, 49, 35, 0)
s = 126: (0, 13, 19, 5, 37, 12, 10, 30, 73, 51, 20, 0)
s = 127: (0, 7, 22, 4, 44, 17, 14, 27, 48, 78, 33, 0)
s = 128: (0, 7, 24, 4, 36, 20, 11, 23, 43, 51, 21, 0)
s = 129: (0, 10, 21, 5, 19, 24, 14, 36, 56, 49, 30, 0)
s = 130: (0, 7, 25, 5, 27, 17, 16, 26, 51, 70, 29, 0)
s = 131: (0, 10, 13, 5, 17, 20, 14, 32, 40, 41, 22, 0)
s = 132: (0, 9, 14, 7, 40, 11, 12, 24, 51, 40, 28, 0)
s = 133: (0, 11, 26, 6, 20, 16, 18, 19, 54, 74, 29, 0)
s = 134: (0, 12, 25, 10, 34, 22, 11, 34, 58, 58, 17, 0)
s = 135: (0, 10, 15, 8, 23, 16, 11, 49, 40, 75, 26, 0)
s = 136: (0, 6, 17, 6, 23, 18, 11, 35, 80, 59, 42, 0)
s = 137: (0, 10, 23, 7, 21, 10, 18, 25, 45, 59, 44, 0)
s = 138: (0, 6, 19, 7, 24, 24, 12, 29, 61, 54, 34, 0)
s = 139: (0, 6, 22, 8, 45, 28, 10, 37, 88, 46, 21, 0)
s = 140: (0, 8, 32, 8, 31, 26, 10, 39, 77, 87, 45, 0)
s = 141: (0, 14, 23, 5, 29, 13, 23, 21, 52, 49, 20, 0)
s = 142: (0, 9, 22, 8, 27, 22, 14, 29, 44, 66, 27, 0)
s = 143: (0, 10, 26, 9, 39, 20, 13, 32, 90, 32, 28, 0)
s = 144: (0, 6, 27, 5, 45, 27, 12, 56, 77, 79, 26, 0)
s = 145: (0, 10, 26, 10, 41, 17, 13, 22, 79, 48, 33, 0)
s = 146: (0, 10, 19, 6, 53, 18, 12, 38, 70, 95, 48, 0)
s = 147: (0, 6, 23, 7, 30, 22, 21, 34, 49, 54, 17, 0)
s = 148: (0, 6, 25, 6, 22, 13, 10, 18, 40, 39, 28, 0)
s = 149: (0, 12, 19, 6, 47, 16, 18, 33, 59, 47, 24, 0)
s = 150: (0, 9, 18, 8, 43, 12, 22, 25, 42, 75, 33, 0)
s = 151: (0, 12, 24, 9, 32, 12, 18, 23, 76, 73, 31, 0)
s = 152: (0, 10, 16, 10, 30, 28, 20, 31, 52, 59, 30, 0)
s = 153: (0, 6, 35, 5, 29, 30, 8, 30, 38, 63, 39, 0)
s = 154: (0, 8, 26, 9, 44, 15, 15, 24, 60, 51, 32, 0)
s = 155: (0, 9, 14, 8, 41, 15, 12, 58, 56, 66, 26, 0)
s = 156: (0, 7, 22, 8, 34, 25, 17, 26, 61, 40, 35, 0)
s = 157: (0, 10, 17, 6, 41, 17, 15, 31, 34, 80, 30, 0)
s = 158: (0, 10, 19, 10, 51, 17, 15, 35, 48, 68, 22, 0)
s = 159: (0, 7, 21, 9, 31, 18, 16, 29, 76, 61, 18, 0)
s = 160: (0, 9, 17, 10, 38, 23, 11, 32, 38, 48, 38, 0)
s = 161: (0, 9, 25, 7, 27, 25, 9, 32, 79, 39, 31, 0)
s = 162: (0, 8, 14, 5, 25, 26, 16, 21, 37, 49, 46, 0)
s = 163: (0, 7, 26, 5, 34, 15, 13, 33, 88, 58, 20, 0)
s = 164: (0, 12, 21, 4, 23, 13, 25, 34, 50, 63, 51, 0)
s = 165: (0, 13, 16, 5, 31, 19, 8, 25, 44, 60, 27, 0)
s = 166: (0, 7, 18, 10, 45, 21, 20, 36, 33, 83, 31, 0)
s = 167: (0, 8, 21, 6, 25, 12, 13, 32, 62, 51, 40, 0)
s = 168: (0, 8, 26, 6, 42, 20, 19, 38, 84, 46, 26, 0)
s = 169: (0, 5, 20, 9, 23, 20, 12, 44, 35, 59, 29, 0)
s = 170: (0, 9, 12, 9, 38, 14, 15, 29, 80, 72, 36, 0)
s = 171: (0, 6, 22, 5, 44, 12, 8, 34, 55, 56, 41, 0)
s = 172: (0, 7, 23, 4, 20, 22, 13, 28, 56, 60, 21, 0)
s = 173: (0, 8, 22, 4, 39, 16, 24, 25, 111, 90, 41, 0)
s = 174: (0, 10, 20, 6, 50, 20, 19, 43, 61, 57, 49, 0)
s = 175: (0, 9, 20, 8, 26, 14, 18, 30, 57, 45, 23, 0)
s = 176: (0, 7, 19, 6, 32, 26, 17, 32, 66, 93, 18, 0)
s = 177: (0, 7, 23, 10, 30, 13, 17, 21, 43, 57, 17, 0)
s = 178: (0, 13, 22, 8, 28, 11, 12, 43, 42, 45, 41, 0)
s = 179: (0, 7, 22, 5, 33, 17, 21, 30, 78, 42, 34, 0)
s = 180: (0, 10, 20, 6, 23, 20, 18, 21, 50, 54, 19, 0)
s = 181: (0, 12, 26, 4, 19, 19, 10, 47, 50, 61, 34, 0)
s = 182: (0, 8, 18, 4, 18, 10, 12, 42, 56, 50, 43, 0)
s = 183: (0, 11, 33, 6, 40, 25, 12, 29, 37, 41, 18, 0)
s = 184: (0, 7, 23, 5, 18, 15, 8, 31, 58, 83, 34, 0)
s = 185: (0, 6, 32, 6, 33, 30, 14, 25, 37, 50, 36, 0)
s = 186: (0, 8, 19, 7, 46, 13, 19, 23, 102, 30, 34, 0)
s = 187: (0, 13, 23, 7, 47, 15, 15, 29, 66, 53, 39, 0)
s = 188: (0, 8, 27, 8, 26, 16, 20, 41, 53, 63, 25, 0)
s = 189: (0, 6, 15, 5, 48, 11, 17, 28, 34, 47, 36, 0)
s = 190: (0, 6, 23, 6, 32, 21, 22, 33, 52, 45, 41, 0)
s = 191: (0, 8, 12, 8, 21, 11, 14, 25, 47, 51, 21, 0)
s = 192: (0, 8, 19, 4, 31, 18, 13, 45, 41, 43, 23, 0)
s = 193: (0, 11, 18, 8, 28, 16, 16, 31, 74, 37, 19, 0)
s = 194: (0, 6, 24, 5, 33, 18, 12, 24, 82, 68, 28, 0)
s = 195: (0, 5, 35, 10, 36, 14, 11, 37, 37, 64, 20, 0)
s = 196: (0, 8, 23, 5, 43, 16, 18, 50, 74, 64, 26, 0)
s = 197: (0, 10, 26, 7, 30, 23, 9, 37, 40, 40, 36, 0)
s = 198: (0, 11, 18, 5, 27, 14, 10, 31, 64, 45, 29, 0)
s = 199: (0, 9, 22, 6, 33, 24, 13, 23, 49, 70, 45, 0)
s = 200: (0, 6, 13, 6, 42, 17, 13, 25, 70, 47, 18, 0)
************************************************************************
ES/LS-VALUES:
jobnr.   ES(i)    LS(i)
------------------------------------------------------------------------
  0        0        0
  1        0       69
  2        0       65
  3        0       67
  4        4       74
  5        5       75
  6        5       71
  7        5       74
  8        8       75
  9        8       79
 10       12       82
 11       23       91
************************************************************************
BIG-M-VALUES:
M1 = 60, M2 = 257
************************************************************************
